50
8753

741 557
922 287
360 779
814 870
427 298
842 502
590 339
239 17
485 582
159 525
983 84
626 127
431 530
762 852
448 324
177 427
463 204
72 408
250 579
668 562
556 861
33 48
251 942
183 79
385 543
890 767
888 314
565 130
460 84
288 372
564 292
865 742
981 469
542 89
298 834
407 197
616 635
217 196
312 562
301 70
679 564
77 760
885 100
598 462
91 939
709 490
371 728
150 665
417 413
34 746
